<?xml version = "1.0" encoding="UTF-8" standalone="yes"?>
<CPLEXSolution version="1.2">
 <header
   problemName="IloCplex"
   solutionName="p0"
   solutionIndex="-1"
   objectiveValue="186801.99999999575"
   solutionTypeValue="3"
   solutionTypeString="primal"
   solutionStatusValue="127"
   solutionStatusString="integer feasible solution"
   solutionMethodString="mip"
   primalFeasible="0"
   dualFeasible="0"
   writeLevel="3"/>
 <quality
   epInt="1.0000000000000001e-05"
   epRHS="9.9999999999999995e-07"
   maxIntInfeas="3.3862949375219273e-12"
   maxPrimalInfeas="2.4034534362726845e-09"
   maxX="710.00000000120315"
   maxSlack="90.00000000030002"/>
 <variables>
  <variable name="x1" index="0" value="710"/>
  <variable name="w0_0" index="1" value="709.99999999973352"/>
  <variable name="w0_2" index="3" value="710"/>
  <variable name="w1_0" index="5" value="7.9715818529418787e-10"/>
  <variable name="w1_2" index="7" value="2.6571939509806224e-10"/>
  <variable name="w1_3" index="8" value="709.99999999970055"/>
  <variable name="w2_0" index="9" value="710"/>
  <variable name="w2_3" index="12" value="710"/>
  <variable name="w3_2" index="15" value="710"/>
  <variable name="w5_1" index="22" value="709.9999999999992"/>
  <variable name="w5_2" index="23" value="709.9999999999992"/>
  <variable name="w6_0" index="25" value="710"/>
  <variable name="w6_3" index="28" value="709.99999999999932"/>
  <variable name="w7_2" index="31" value="709.99999999999943"/>
  <variable name="w8_0" index="33" value="709.99999999999977"/>
  <variable name="w8_2" index="35" value="709.99999999873705"/>
  <variable name="w9_1" index="38" value="710"/>
  <variable name="w10_3" index="44" value="710"/>
  <variable name="w11_1" index="46" value="710"/>
  <variable name="w11_2" index="47" value="710"/>
  <variable name="w12_0" index="49" value="2.65719395098061e-10"/>
  <variable name="w12_1" index="50" value="2.65719395098061e-10"/>
  <variable name="w12_2" index="51" value="710"/>
  <variable name="w13_1" index="54" value="710"/>
  <variable name="w14_0" index="57" value="709.99999999978502"/>
  <variable name="w14_1" index="58" value="709.99999999978422"/>
  <variable name="w14_2" index="59" value="2.1494138958794365e-10"/>
  <variable name="w15_0" index="61" value="710"/>
  <variable name="w15_1" index="62" value="709.99999999973431"/>
  <variable name="w15_2" index="63" value="710"/>
  <variable name="w16_3" index="68" value="710"/>
  <variable name="w17_0" index="69" value="7.4723127382822908e-10"/>
  <variable name="w17_1" index="70" value="709.99999999903389"/>
  <variable name="w18_0" index="73" value="710"/>
  <variable name="w18_1" index="74" value="710"/>
  <variable name="w19_2" index="79" value="710"/>
  <variable name="w20_1" index="82" value="710"/>
  <variable name="w20_2" index="83" value="710"/>
  <variable name="w21_2" index="87" value="-4.298827791758875e-10"/>
  <variable name="w21_3" index="88" value="710.00000000042985"/>
  <variable name="w22_0" index="89" value="-2.9951582215948233e-10"/>
  <variable name="w22_1" index="90" value="-2.9951582215948233e-10"/>
  <variable name="w22_2" index="91" value="-2.9951582215948233e-10"/>
  <variable name="w22_3" index="92" value="709.99999999999932"/>
  <variable name="w23_0" index="93" value="710"/>
  <variable name="w23_3" index="96" value="710"/>
  <variable name="w24_2" index="99" value="710"/>
  <variable name="w25_3" index="104" value="710"/>
  <variable name="w28_0" index="113" value="710"/>
  <variable name="w28_2" index="115" value="710"/>
  <variable name="w29_0" index="117" value="710.00000000042928"/>
  <variable name="w29_1" index="118" value="710.00000000042905"/>
  <variable name="w29_2" index="119" value="-4.2988277917588745e-10"/>
  <variable name="w30_1" index="122" value="710"/>
  <variable name="w31_1" index="126" value="710"/>
  <variable name="w32_0" index="129" value="710"/>
  <variable name="w33_1" index="134" value="709.99999999800002"/>
  <variable name="w33_2" index="135" value="710.00000000099999"/>
  <variable name="w35_0" index="141" value="710"/>
  <variable name="w35_1" index="142" value="710"/>
  <variable name="w35_2" index="143" value="710"/>
  <variable name="w36_0" index="145" value="709.99999999999943"/>
  <variable name="w36_1" index="146" value="710"/>
  <variable name="w37_0" index="149" value="710"/>
  <variable name="w37_1" index="150" value="710"/>
  <variable name="w37_2" index="151" value="710.00000000048067"/>
  <variable name="w38_0" index="153" value="710"/>
  <variable name="w38_1" index="154" value="710"/>
  <variable name="w39_0" index="157" value="710"/>
  <variable name="w39_2" index="159" value="709.9999999999992"/>
  <variable name="w40_2" index="163" value="2.6571939509806266e-10"/>
  <variable name="w40_3" index="164" value="709.99999999970055"/>
  <variable name="w41_1" index="166" value="709.9999999999992"/>
  <variable name="w41_2" index="167" value="2.7083615350420587e-09"/>
  <variable name="w42_1" index="170" value="709.9999999999992"/>
  <variable name="w43_0" index="173" value="710.00000000120315"/>
  <variable name="w47_0" index="189" value="710"/>
  <variable name="w48_0" index="193" value="2.1494138958794378e-10"/>
  <variable name="w48_1" index="194" value="710.00000000086243"/>
  <variable name="w48_2" index="195" value="710"/>
  <variable name="w49_2" index="199" value="709.99999999800002"/>
  <variable name="w49_3" index="200" value="-4.3161097796088935e-10"/>
  <variable name="x0_20" index="221" value="0.99999999999962574"/>
  <variable name="x0_21" index="222" value="3.7425266915220089e-13"/>
  <variable name="x1_10" index="261" value="0.99999999999962574"/>
  <variable name="x1_16" index="267" value="3.7425266915220089e-13"/>
  <variable name="x2_0" index="301" value="1"/>
  <variable name="x3_23" index="374" value="1"/>
  <variable name="x4_49" index="450" value="1"/>
  <variable name="x5_14" index="465" value="1"/>
  <variable name="x6_4" index="505" value="1"/>
  <variable name="x7_25" index="576" value="1"/>
  <variable name="x8_8" index="609" value="0.99999999999962574"/>
  <variable name="x8_12" index="613" value="-6.7818574469038271e-13"/>
  <variable name="x8_35" index="636" value="1.0524384138425842e-12"/>
  <variable name="x9_40" index="691" value="1"/>
  <variable name="x10_6" index="707" value="1"/>
  <variable name="x11_19" index="770" value="1"/>
  <variable name="x12_7" index="808" value="3.742526691522015e-13"/>
  <variable name="x12_21" index="822" value="0.99999999999962574"/>
  <variable name="x13_33" index="884" value="1"/>
  <variable name="x14_27" index="928" value="3.0273435153231533e-13"/>
  <variable name="x14_30" index="931" value="0.99999999999969724"/>
  <variable name="x15_16" index="967" value="0.99999999999962574"/>
  <variable name="x15_20" index="971" value="3.7425266915220089e-13"/>
  <variable name="x16_1" index="1002" value="1"/>
  <variable name="x17_1" index="1052" value="2.3679864311457967e-13"/>
  <variable name="x17_35" index="1086" value="0.99999999999894751"/>
  <variable name="x17_46" index="1097" value="8.4728186724626276e-13"/>
  <variable name="x18_31" index="1132" value="1"/>
  <variable name="x19_27" index="1178" value="1"/>
  <variable name="x20_12" index="1213" value="1.0000000000006781"/>
  <variable name="x20_13" index="1214" value="-6.7818574469038271e-13"/>
  <variable name="x21_0" index="1251" value="6.0546870306463127e-13"/>
  <variable name="x21_5" index="1256" value="1"/>
  <variable name="x21_28" index="1279" value="-6.0546870306463096e-13"/>
  <variable name="x22_9" index="1310" value="1"/>
  <variable name="x22_10" index="1311" value="3.7425266915220089e-13"/>
  <variable name="x22_14" index="1315" value="-3.7425266915220089e-13"/>
  <variable name="x23_2" index="1353" value="1"/>
  <variable name="x24_24" index="1425" value="1"/>
  <variable name="x25_3" index="1454" value="1"/>
  <variable name="x26_44" index="1545" value="1"/>
  <variable name="x27_43" index="1594" value="1"/>
  <variable name="x28_17" index="1618" value="1"/>
  <variable name="x29_27" index="1678" value="-6.0546870306463086e-13"/>
  <variable name="x29_28" index="1679" value="1.0000000000006055"/>
  <variable name="x30_38" index="1739" value="1"/>
  <variable name="x31_37" index="1788" value="1"/>
  <variable name="x32_41" index="1842" value="1"/>
  <variable name="x33_11" index="1862" value="1"/>
  <variable name="x34_45" index="1946" value="1"/>
  <variable name="x35_15" index="1966" value="1"/>
  <variable name="x36_29" index="2030" value="1"/>
  <variable name="x37_1" index="2052" value="4.8094015237563743e-13"/>
  <variable name="x37_13" index="2064" value="1.0000000000006781"/>
  <variable name="x37_14" index="2065" value="-1.1907679935842784e-12"/>
  <variable name="x38_32" index="2133" value="1"/>
  <variable name="x39_18" index="2169" value="1"/>
  <variable name="x40_7" index="2208" value="0.99999999999962574"/>
  <variable name="x40_8" index="2209" value="3.742526691522015e-13"/>
  <variable name="x41_23" index="2274" value="3.3862949375219273e-12"/>
  <variable name="x41_34" index="2285" value="-3.3862949375219273e-12"/>
  <variable name="x41_36" index="2287" value="1"/>
  <variable name="x42_39" index="2340" value="1"/>
  <variable name="x43_3" index="2354" value="-1.074019268340326e-13"/>
  <variable name="x43_4" index="2355" value="1.074019268340326e-13"/>
  <variable name="x43_34" index="2385" value="8.4728186724626276e-13"/>
  <variable name="x43_42" index="2393" value="0.99999999999915268"/>
  <variable name="x44_48" index="2449" value="1"/>
  <variable name="x45_47" index="2498" value="1"/>
  <variable name="x46_42" index="2543" value="8.4728186724626276e-13"/>
  <variable name="x46_46" index="2547" value="0.99999999999915268"/>
  <variable name="x47_4" index="2555" value="-1.074019268340326e-13"/>
  <variable name="x47_34" index="2585" value="1.0000000000001075"/>
  <variable name="x48_14" index="2615" value="1.5650206627364793e-12"/>
  <variable name="x48_22" index="2623" value="1.0000000000012159"/>
  <variable name="x48_23" index="2624" value="-3.3862949375219273e-12"/>
  <variable name="x48_27" index="2628" value="3.0273435153231553e-13"/>
  <variable name="x48_30" index="2631" value="3.0273435153231558e-13"/>
  <variable name="x49_0" index="2651" value="-6.0790278586040813e-13"/>
  <variable name="x49_1" index="2652" value="-6.0790278586040813e-13"/>
  <variable name="x49_22" index="2673" value="-1.2158055717208154e-12"/>
  <variable name="x49_26" index="2677" value="1"/>
  <variable name="x49_34" index="2685" value="2.4316111434416317e-12"/>
  <variable name="v0_0" index="2701" value="0.99999999999962574"/>
  <variable name="v0_2" index="2703" value="1"/>
  <variable name="v1_0" index="2705" value="1.1227580074566027e-12"/>
  <variable name="v1_2" index="2707" value="3.7425266915220034e-13"/>
  <variable name="v1_3" index="2708" value="0.99999999999962574"/>
  <variable name="v2_0" index="2709" value="1"/>
  <variable name="v2_3" index="2712" value="1"/>
  <variable name="v3_2" index="2715" value="1"/>
  <variable name="v5_1" index="2722" value="1"/>
  <variable name="v5_2" index="2723" value="1"/>
  <variable name="v6_0" index="2725" value="1"/>
  <variable name="v6_3" index="2728" value="1"/>
  <variable name="v7_2" index="2731" value="1"/>
  <variable name="v8_0" index="2733" value="1"/>
  <variable name="v8_1" index="2734" value="1.5786576207638763e-12"/>
  <variable name="v8_2" index="2735" value="0.99999999999842137"/>
  <variable name="v9_1" index="2738" value="1"/>
  <variable name="v10_3" index="2744" value="1"/>
  <variable name="v11_1" index="2746" value="1"/>
  <variable name="v11_2" index="2747" value="1"/>
  <variable name="v12_0" index="2749" value="3.7425266915219862e-13"/>
  <variable name="v12_1" index="2750" value="3.7425266915219862e-13"/>
  <variable name="v12_2" index="2751" value="1"/>
  <variable name="v13_1" index="2754" value="1"/>
  <variable name="v14_0" index="2757" value="0.99999999999969724"/>
  <variable name="v14_1" index="2758" value="0.99999999999969724"/>
  <variable name="v14_2" index="2759" value="3.0273435153231483e-13"/>
  <variable name="v15_0" index="2761" value="1"/>
  <variable name="v15_1" index="2762" value="0.99999999999962574"/>
  <variable name="v15_2" index="2763" value="1"/>
  <variable name="v16_3" index="2768" value="1"/>
  <variable name="v17_0" index="2769" value="1.0524384138425761e-12"/>
  <variable name="v17_1" index="2770" value="0.99999999999879241"/>
  <variable name="v17_2" index="2771" value="1.1839932155728983e-13"/>
  <variable name="v17_3" index="2772" value="1.1839932155728983e-13"/>
  <variable name="v18_0" index="2773" value="1"/>
  <variable name="v18_1" index="2774" value="1"/>
  <variable name="v19_2" index="2779" value="1"/>
  <variable name="v20_1" index="2782" value="1"/>
  <variable name="v20_2" index="2783" value="1"/>
  <variable name="v21_2" index="2787" value="-6.0546870306463096e-13"/>
  <variable name="v21_3" index="2788" value="1.0000000000006055"/>
  <variable name="v22_0" index="2789" value="-3.7425266915220089e-13"/>
  <variable name="v22_1" index="2790" value="-3.7425266915220089e-13"/>
  <variable name="v22_2" index="2791" value="-3.7425266915220089e-13"/>
  <variable name="v22_3" index="2792" value="1.0000000000003741"/>
  <variable name="v23_0" index="2793" value="1"/>
  <variable name="v23_3" index="2796" value="1"/>
  <variable name="v24_2" index="2799" value="1"/>
  <variable name="v25_3" index="2804" value="1"/>
  <variable name="v28_0" index="2813" value="1"/>
  <variable name="v28_2" index="2815" value="1"/>
  <variable name="v29_0" index="2817" value="1.0000000000006046"/>
  <variable name="v29_1" index="2818" value="1.0000000000006044"/>
  <variable name="v29_2" index="2819" value="-6.0474401156460635e-13"/>
  <variable name="v30_1" index="2822" value="1"/>
  <variable name="v31_1" index="2826" value="1"/>
  <variable name="v32_0" index="2829" value="1"/>
  <variable name="v33_1" index="2834" value="0.9999999999975"/>
  <variable name="v33_2" index="2835" value="1.0000000000012501"/>
  <variable name="v35_0" index="2841" value="1"/>
  <variable name="v35_1" index="2842" value="1"/>
  <variable name="v35_2" index="2843" value="1"/>
  <variable name="v36_0" index="2845" value="1"/>
  <variable name="v36_1" index="2846" value="1"/>
  <variable name="v37_0" index="2849" value="1.0000000000001339"/>
  <variable name="v37_1" index="2850" value="1"/>
  <variable name="v37_2" index="2851" value="1.000000000000602"/>
  <variable name="v38_0" index="2853" value="1"/>
  <variable name="v38_1" index="2854" value="1"/>
  <variable name="v39_0" index="2857" value="1"/>
  <variable name="v39_2" index="2859" value="1"/>
  <variable name="v40_0" index="2861" value="1.4970106766088038e-12"/>
  <variable name="v40_2" index="2863" value="3.7425266915220094e-13"/>
  <variable name="v40_3" index="2864" value="0.99999999999962574"/>
  <variable name="v41_1" index="2866" value="0.99999999999661371"/>
  <variable name="v41_2" index="2867" value="3.3862949375219273e-12"/>
  <variable name="v42_1" index="2870" value="1"/>
  <variable name="v43_0" index="2873" value="1.0000000000016946"/>
  <variable name="v47_0" index="2889" value="1"/>
  <variable name="v47_3" index="2892" value="-1.074019268340324e-13"/>
  <variable name="v48_0" index="2893" value="1.3189861016633902e-13"/>
  <variable name="v48_1" index="2894" value="1.0000000000010449"/>
  <variable name="v48_2" index="2895" value="1"/>
  <variable name="v49_2" index="2899" value="0.99999999999756839"/>
 </variables>
</CPLEXSolution>
